0 4371
1 4319
5 4293
9 4291
12 4224
14 4211
18 4180
19 4170
20 4136
23 4129
25 4101
28 4008
34 3985
35 3941
42 3913
50 3907
69 3876
80 3873
84 3872
95 3870
101 3853
126 3844
141 3839
148 3828
157 3812
193 3793
231 3786
239 3778
291 3768
336 3761
343 3758
349 3743
350 3733
352 3727
364 3723
378 3716
385 3704
414 3691
416 3685
422 3663
472 3662
478 3632
481 3619
940 3617
1240 3611
1415 3607
1460 3599
1529 3591
1856 3589
2000 3585
2043 3581
2450 3544
4487 3543
41089 3542
41461 3538
42206 3537
42219 3535
42261 3531
42370 3526
43341 3525
43416 3521
44392 3518
44533 3517
45948 3515
48270 3514
64468 3509
64793 3506
64806 3501
65049 3500
65527 3497
65652 3495
65665 3481
65772 3480
66166 3477
66318 3470
66972 3466
68379 3465
70643 3464
209204 3462
210974 3461
212849 3460
